MATILDA_Graphs/g0056.col
c File: data_files/evolved_graphs/g0056.col
c
c Auto generated graph
c
p edge 100 2443
e 1 2
e 1 6
e 1 7
e 1 9
e 1 12
e 1 13
e 1 16
e 1 17
e 1 19
e 1 20
e 1 25
e 1 26
e 1 28
e 1 34
e 1 38
e 1 39
e 1 40
e 1 41
e 1 43
e 1 44
e 1 45
e 1 47
e 1 48
e 1 49
e 1 50
e 1 51
e 1 53
e 1 54
e 1 55
e 1 58
e 1 59
e 1 60
e 1 61
e 1 62
e 1 63
e 1 64
e 1 65
e 1 68
e 1 70
e 1 71
e 1 73
e 1 74
e 1 76
e 1 78
e 1 81
e 1 82
e 1 83
e 1 87
e 1 88
e 1 89
e 1 90
e 1 93
e 1 96
e 1 98
e 2 4
e 2 5
e 2 8
e 2 10
e 2 11
e 2 13
e 2 17
e 2 23
e 2 26
e 2 28
e 2 31
e 2 32
e 2 37
e 2 40
e 2 45
e 2 46
e 2 48
e 2 53
e 2 55
e 2 56
e 2 58
e 2 60
e 2 65
e 2 66
e 2 68
e 2 70
e 2 71
e 2 72
e 2 74
e 2 76
e 2 77
e 2 78
e 2 81
e 2 83
e 2 84
e 2 85
e 2 89
e 2 92
e 2 93
e 2 96
e 2 97
e 2 100
e 3 16
e 3 17
e 3 19
e 3 25
e 3 27
e 3 28
e 3 29
e 3 31
e 3 32
e 3 33
e 3 39
e 3 40
e 3 41
e 3 42
e 3 43
e 3 45
e 3 46
e 3 52
e 3 54
e 3 56
e 3 57
e 3 58
e 3 59
e 3 60
e 3 63
e 3 64
e 3 71
e 3 74
e 3 75
e 3 76
e 3 79
e 3 82
e 3 85
e 3 86
e 3 87
e 3 88
e 3 89
e 3 90
e 3 94
e 3 95
e 3 96
e 3 97
e 3 98
e 3 99
e 4 9
e 4 10
e 4 11
e 4 13
e 4 15
e 4 16
e 4 17
e 4 19
e 4 22
e 4 26
e 4 28
e 4 30
e 4 33
e 4 34
e 4 38
e 4 40
e 4 42
e 4 47
e 4 50
e 4 52
e 4 55
e 4 56
e 4 60
e 4 62
e 4 63
e 4 64
e 4 66
e 4 67
e 4 69
e 4 70
e 4 71
e 4 74
e 4 75
e 4 79
e 4 81
e 4 82
e 4 83
e 4 84
e 4 85
e 4 87
e 4 90
e 4 92
e 4 93
e 4 94
e 4 95
e 4 98
e 5 6
e 5 7
e 5 8
e 5 11
e 5 12
e 5 13
e 5 14
e 5 17
e 5 19
e 5 20
e 5 21
e 5 22
e 5 26
e 5 27
e 5 34
e 5 35
e 5 36
e 5 39
e 5 41
e 5 43
e 5 44
e 5 46
e 5 48
e 5 49
e 5 51
e 5 52
e 5 53
e 5 55
e 5 56
e 5 59
e 5 60
e 5 61
e 5 62
e 5 63
e 5 67
e 5 70
e 5 72
e 5 76
e 5 77
e 5 82
e 5 83
e 5 84
e 5 85
e 5 86
e 5 88
e 5 89
e 5 90
e 5 91
e 5 93
e 5 94
e 5 95
e 5 96
e 5 97
e 5 99
e 5 100
e 6 9
e 6 10
e 6 11
e 6 12
e 6 14
e 6 17
e 6 18
e 6 21
e 6 25
e 6 26
e 6 28
e 6 32
e 6 33
e 6 34
e 6 38
e 6 40
e 6 41
e 6 42
e 6 43
e 6 44
e 6 46
e 6 47
e 6 50
e 6 51
e 6 53
e 6 54
e 6 55
e 6 56
e 6 62
e 6 63
e 6 64
e 6 65
e 6 66
e 6 68
e 6 69
e 6 70
e 6 71
e 6 72
e 6 73
e 6 74
e 6 75
e 6 77
e 6 79
e 6 80
e 6 86
e 6 87
e 6 89
e 6 90
e 6 94
e 6 95
e 6 96
e 6 97
e 6 100
e 7 8
e 7 12
e 7 15
e 7 16
e 7 17
e 7 18
e 7 19
e 7 20
e 7 24
e 7 26
e 7 27
e 7 29
e 7 30
e 7 31
e 7 34
e 7 36
e 7 40
e 7 41
e 7 42
e 7 43
e 7 44
e 7 49
e 7 51
e 7 55
e 7 58
e 7 60
e 7 62
e 7 63
e 7 67
e 7 68
e 7 72
e 7 77
e 7 78
e 7 79
e 7 81
e 7 82
e 7 84
e 7 85
e 7 86
e 7 87
e 7 89
e 7 91
e 7 92
e 7 93
e 7 94
e 7 99
e 8 10
e 8 12
e 8 13
e 8 14
e 8 15
e 8 20
e 8 21
e 8 22
e 8 23
e 8 28
e 8 33
e 8 34
e 8 35
e 8 36
e 8 37
e 8 41
e 8 42
e 8 45
e 8 46
e 8 49
e 8 51
e 8 54
e 8 59
e 8 67
e 8 69
e 8 71
e 8 72
e 8 74
e 8 75
e 8 77
e 8 79
e 8 80
e 8 83
e 8 84
e 8 85
e 8 89
e 8 91
e 8 93
e 8 94
e 8 95
e 8 96
e 8 97
e 9 10
e 9 12
e 9 13
e 9 19
e 9 21
e 9 30
e 9 31
e 9 33
e 9 35
e 9 37
e 9 40
e 9 48
e 9 51
e 9 52
e 9 54
e 9 56
e 9 57
e 9 59
e 9 62
e 9 63
e 9 64
e 9 67
e 9 68
e 9 70
e 9 71
e 9 73
e 9 76
e 9 77
e 9 80
e 9 81
e 9 82
e 9 85
e 9 86
e 9 87
e 9 90
e 9 92
e 9 94
e 9 96
e 9 98
e 9 99
e 9 100
e 10 11
e 10 13
e 10 14
e 10 20
e 10 21
e 10 22
e 10 24
e 10 29
e 10 31
e 10 36
e 10 40
e 10 43
e 10 44
e 10 47
e 10 52
e 10 53
e 10 54
e 10 56
e 10 59
e 10 60
e 10 61
e 10 62
e 10 63
e 10 64
e 10 70
e 10 72
e 10 75
e 10 80
e 10 81
e 10 82
e 10 84
e 10 85
e 10 87
e 10 89
e 10 92
e 10 93
e 10 94
e 10 95
e 10 96
e 10 97
e 10 100
e 11 13
e 11 14
e 11 15
e 11 17
e 11 19
e 11 20
e 11 21
e 11 23
e 11 24
e 11 29
e 11 30
e 11 32
e 11 33
e 11 34
e 11 37
e 11 39
e 11 40
e 11 44
e 11 45
e 11 46
e 11 47
e 11 48
e 11 49
e 11 50
e 11 53
e 11 54
e 11 55
e 11 56
e 11 59
e 11 61
e 11 62
e 11 64
e 11 67
e 11 68
e 11 69
e 11 74
e 11 77
e 11 78
e 11 79
e 11 84
e 11 86
e 11 87
e 11 90
e 11 93
e 11 95
e 11 97
e 11 98
e 11 99
e 12 13
e 12 16
e 12 17
e 12 18
e 12 19
e 12 22
e 12 26
e 12 27
e 12 28
e 12 29
e 12 33
e 12 34
e 12 36
e 12 38
e 12 41
e 12 42
e 12 43
e 12 44
e 12 46
e 12 47
e 12 48
e 12 49
e 12 50
e 12 55
e 12 56
e 12 62
e 12 63
e 12 64
e 12 66
e 12 68
e 12 70
e 12 72
e 12 73
e 12 74
e 12 75
e 12 80
e 12 83
e 12 85
e 12 88
e 12 90
e 12 93
e 12 94
e 12 98
e 13 16
e 13 17
e 13 20
e 13 21
e 13 24
e 13 25
e 13 26
e 13 27
e 13 28
e 13 30
e 13 34
e 13 35
e 13 37
e 13 38
e 13 41
e 13 43
e 13 44
e 13 45
e 13 50
e 13 51
e 13 54
e 13 56
e 13 57
e 13 59
e 13 63
e 13 64
e 13 67
e 13 68
e 13 69
e 13 72
e 13 75
e 13 76
e 13 77
e 13 78
e 13 81
e 13 83
e 13 87
e 13 91
e 13 94
e 13 99
e 13 100
e 14 15
e 14 17
e 14 18
e 14 22
e 14 23
e 14 24
e 14 25
e 14 27
e 14 28
e 14 31
e 14 34
e 14 37
e 14 42
e 14 43
e 14 44
e 14 46
e 14 50
e 14 52
e 14 57
e 14 59
e 14 60
e 14 61
e 14 62
e 14 63
e 14 66
e 14 67
e 14 68
e 14 70
e 14 73
e 14 74
e 14 77
e 14 78
e 14 79
e 14 86
e 14 87
e 14 88
e 14 89
e 14 91
e 14 92
e 14 93
e 14 94
e 14 95
e 14 96
e 14 97
e 14 99
e 14 100
e 15 18
e 15 20
e 15 25
e 15 30
e 15 31
e 15 32
e 15 35
e 15 36
e 15 37
e 15 40
e 15 43
e 15 45
e 15 46
e 15 50
e 15 53
e 15 54
e 15 55
e 15 58
e 15 59
e 15 60
e 15 61
e 15 64
e 15 65
e 15 73
e 15 76
e 15 77
e 15 78
e 15 82
e 15 83
e 15 84
e 15 86
e 15 88
e 15 91
e 15 92
e 15 94
e 15 95
e 15 96
e 15 97
e 15 98
e 15 100
e 16 17
e 16 18
e 16 20
e 16 21
e 16 22
e 16 23
e 16 27
e 16 28
e 16 30
e 16 31
e 16 36
e 16 40
e 16 42
e 16 45
e 16 46
e 16 50
e 16 51
e 16 53
e 16 55
e 16 56
e 16 59
e 16 60
e 16 64
e 16 66
e 16 70
e 16 71
e 16 73
e 16 75
e 16 80
e 16 84
e 16 86
e 16 87
e 16 88
e 16 91
e 16 92
e 16 95
e 16 97
e 16 100
e 17 19
e 17 22
e 17 29
e 17 30
e 17 32
e 17 34
e 17 36
e 17 38
e 17 40
e 17 41
e 17 43
e 17 45
e 17 46
e 17 47
e 17 48
e 17 50
e 17 51
e 17 54
e 17 55
e 17 56
e 17 57
e 17 58
e 17 61
e 17 62
e 17 64
e 17 65
e 17 67
e 17 70
e 17 76
e 17 77
e 17 78
e 17 81
e 17 84
e 17 89
e 17 90
e 17 91
e 17 92
e 17 93
e 17 95
e 17 96
e 17 99
e 18 19
e 18 20
e 18 23
e 18 24
e 18 26
e 18 28
e 18 30
e 18 31
e 18 33
e 18 36
e 18 37
e 18 40
e 18 44
e 18 45
e 18 50
e 18 51
e 18 53
e 18 54
e 18 55
e 18 57
e 18 58
e 18 62
e 18 67
e 18 68
e 18 70
e 18 71
e 18 73
e 18 74
e 18 75
e 18 76
e 18 81
e 18 83
e 18 84
e 18 85
e 18 87
e 18 88
e 18 89
e 18 91
e 18 92
e 18 95
e 18 96
e 19 21
e 19 25
e 19 26
e 19 28
e 19 29
e 19 30
e 19 36
e 19 38
e 19 40
e 19 41
e 19 42
e 19 45
e 19 47
e 19 48
e 19 49
e 19 52
e 19 56
e 19 58
e 19 64
e 19 65
e 19 66
e 19 68
e 19 71
e 19 73
e 19 75
e 19 79
e 19 82
e 19 83
e 19 85
e 19 87
e 19 90
e 19 91
e 19 92
e 19 94
e 19 95
e 19 97
e 19 100
e 20 22
e 20 23
e 20 25
e 20 26
e 20 27
e 20 29
e 20 30
e 20 31
e 20 32
e 20 36
e 20 38
e 20 39
e 20 40
e 20 42
e 20 45
e 20 46
e 20 47
e 20 48
e 20 53
e 20 56
e 20 62
e 20 64
e 20 67
e 20 68
e 20 69
e 20 71
e 20 73
e 20 75
e 20 77
e 20 78
e 20 80
e 20 82
e 20 83
e 20 84
e 20 87
e 20 89
e 20 91
e 20 93
e 20 95
e 20 96
e 20 97
e 20 98
e 20 100
e 21 22
e 21 23
e 21 27
e 21 28
e 21 29
e 21 31
e 21 32
e 21 34
e 21 35
e 21 36
e 21 37
e 21 40
e 21 42
e 21 43
e 21 44
e 21 46
e 21 47
e 21 53
e 21 55
e 21 58
e 21 59
e 21 60
e 21 64
e 21 66
e 21 67
e 21 68
e 21 70
e 21 72
e 21 73
e 21 74
e 21 75
e 21 76
e 21 79
e 21 82
e 21 84
e 21 86
e 21 88
e 21 89
e 21 90
e 21 92
e 21 94
e 21 96
e 21 99
e 21 100
e 22 24
e 22 26
e 22 27
e 22 30
e 22 31
e 22 32
e 22 33
e 22 38
e 22 39
e 22 41
e 22 42
e 22 43
e 22 45
e 22 47
e 22 48
e 22 55
e 22 56
e 22 58
e 22 65
e 22 69
e 22 75
e 22 76
e 22 78
e 22 82
e 22 84
e 22 85
e 22 88
e 22 89
e 22 94
e 22 97
e 22 99
e 22 100
e 23 26
e 23 31
e 23 32
e 23 33
e 23 38
e 23 40
e 23 42
e 23 43
e 23 44
e 23 45
e 23 47
e 23 49
e 23 51
e 23 52
e 23 54
e 23 55
e 23 56
e 23 58
e 23 60
e 23 64
e 23 65
e 23 66
e 23 68
e 23 70
e 23 72
e 23 74
e 23 76
e 23 77
e 23 79
e 23 81
e 23 82
e 23 83
e 23 86
e 23 87
e 23 88
e 23 90
e 23 92
e 23 96
e 23 97
e 23 98
e 23 99
e 24 26
e 24 31
e 24 32
e 24 33
e 24 35
e 24 37
e 24 38
e 24 41
e 24 42
e 24 43
e 24 45
e 24 47
e 24 48
e 24 54
e 24 58
e 24 59
e 24 62
e 24 63
e 24 65
e 24 67
e 24 68
e 24 70
e 24 73
e 24 80
e 24 81
e 24 82
e 24 83
e 24 84
e 24 85
e 24 86
e 24 89
e 24 90
e 24 92
e 24 94
e 24 96
e 24 98
e 24 100
e 25 28
e 25 31
e 25 36
e 25 37
e 25 39
e 25 43
e 25 44
e 25 45
e 25 46
e 25 47
e 25 49
e 25 50
e 25 51
e 25 52
e 25 53
e 25 54
e 25 55
e 25 56
e 25 59
e 25 60
e 25 61
e 25 62
e 25 63
e 25 64
e 25 65
e 25 66
e 25 68
e 25 69
e 25 72
e 25 73
e 25 74
e 25 75
e 25 80
e 25 81
e 25 82
e 25 83
e 25 86
e 25 88
e 25 92
e 25 94
e 25 95
e 25 96
e 25 98
e 26 30
e 26 34
e 26 36
e 26 37
e 26 38
e 26 40
e 26 41
e 26 43
e 26 45
e 26 46
e 26 48
e 26 49
e 26 51
e 26 52
e 26 54
e 26 56
e 26 59
e 26 60
e 26 61
e 26 64
e 26 69
e 26 70
e 26 72
e 26 73
e 26 76
e 26 79
e 26 81
e 26 83
e 26 85
e 26 87
e 26 88
e 26 89
e 26 91
e 26 92
e 26 93
e 26 94
e 26 98
e 26 99
e 27 30
e 27 32
e 27 35
e 27 37
e 27 39
e 27 44
e 27 46
e 27 49
e 27 54
e 27 55
e 27 57
e 27 59
e 27 62
e 27 64
e 27 66
e 27 67
e 27 72
e 27 73
e 27 75
e 27 76
e 27 77
e 27 78
e 27 79
e 27 83
e 27 85
e 27 87
e 27 88
e 27 89
e 27 93
e 27 97
e 27 98
e 27 99
e 28 33
e 28 35
e 28 37
e 28 38
e 28 42
e 28 43
e 28 44
e 28 45
e 28 47
e 28 49
e 28 51
e 28 54
e 28 56
e 28 57
e 28 59
e 28 68
e 28 71
e 28 77
e 28 79
e 28 80
e 28 82
e 28 83
e 28 84
e 28 86
e 28 87
e 28 88
e 28 92
e 28 93
e 28 94
e 29 32
e 29 35
e 29 40
e 29 41
e 29 42
e 29 43
e 29 46
e 29 47
e 29 48
e 29 49
e 29 54
e 29 55
e 29 57
e 29 60
e 29 61
e 29 62
e 29 64
e 29 67
e 29 71
e 29 72
e 29 75
e 29 79
e 29 80
e 29 81
e 29 85
e 29 87
e 29 90
e 29 93
e 29 94
e 29 98
e 29 100
e 30 31
e 30 32
e 30 33
e 30 36
e 30 38
e 30 39
e 30 40
e 30 41
e 30 42
e 30 46
e 30 49
e 30 51
e 30 52
e 30 53
e 30 54
e 30 56
e 30 58
e 30 60
e 30 62
e 30 64
e 30 67
e 30 71
e 30 72
e 30 78
e 30 80
e 30 81
e 30 84
e 30 94
e 30 95
e 30 96
e 30 98
e 30 99
e 31 32
e 31 33
e 31 35
e 31 36
e 31 37
e 31 41
e 31 42
e 31 44
e 31 47
e 31 49
e 31 50
e 31 52
e 31 54
e 31 55
e 31 59
e 31 60
e 31 63
e 31 64
e 31 65
e 31 66
e 31 67
e 31 72
e 31 74
e 31 75
e 31 76
e 31 78
e 31 79
e 31 82
e 31 85
e 31 86
e 31 88
e 31 90
e 31 92
e 31 93
e 31 96
e 31 97
e 31 100
e 32 33
e 32 35
e 32 37
e 32 38
e 32 41
e 32 42
e 32 45
e 32 46
e 32 48
e 32 52
e 32 53
e 32 56
e 32 60
e 32 61
e 32 62
e 32 63
e 32 64
e 32 65
e 32 66
e 32 69
e 32 70
e 32 71
e 32 75
e 32 76
e 32 79
e 32 82
e 32 85
e 32 87
e 32 89
e 32 92
e 32 93
e 32 94
e 32 96
e 32 99
e 33 36
e 33 37
e 33 41
e 33 43
e 33 44
e 33 46
e 33 49
e 33 54
e 33 57
e 33 58
e 33 61
e 33 63
e 33 64
e 33 68
e 33 70
e 33 71
e 33 72
e 33 75
e 33 76
e 33 77
e 33 79
e 33 80
e 33 82
e 33 83
e 33 84
e 33 85
e 33 89
e 33 92
e 33 93
e 33 96
e 33 98
e 33 99
e 34 37
e 34 38
e 34 40
e 34 43
e 34 44
e 34 45
e 34 46
e 34 48
e 34 49
e 34 51
e 34 52
e 34 53
e 34 54
e 34 55
e 34 56
e 34 57
e 34 63
e 34 65
e 34 66
e 34 68
e 34 69
e 34 70
e 34 71
e 34 72
e 34 73
e 34 79
e 34 80
e 34 82
e 34 83
e 34 84
e 34 86
e 34 87
e 34 91
e 34 92
e 34 93
e 34 94
e 34 95
e 34 96
e 34 100
e 35 36
e 35 37
e 35 42
e 35 48
e 35 50
e 35 51
e 35 53
e 35 55
e 35 57
e 35 59
e 35 63
e 35 64
e 35 65
e 35 66
e 35 68
e 35 73
e 35 76
e 35 78
e 35 79
e 35 80
e 35 81
e 35 85
e 35 87
e 35 88
e 35 91
e 35 92
e 35 93
e 36 38
e 36 41
e 36 44
e 36 45
e 36 46
e 36 47
e 36 49
e 36 50
e 36 51
e 36 52
e 36 55
e 36 56
e 36 57
e 36 58
e 36 59
e 36 64
e 36 65
e 36 66
e 36 67
e 36 69
e 36 70
e 36 73
e 36 74
e 36 75
e 36 77
e 36 78
e 36 79
e 36 80
e 36 84
e 36 86
e 36 88
e 36 89
e 36 90
e 36 91
e 36 92
e 36 94
e 36 98
e 36 99
e 37 38
e 37 42
e 37 43
e 37 44
e 37 45
e 37 47
e 37 51
e 37 52
e 37 53
e 37 54
e 37 59
e 37 61
e 37 65
e 37 67
e 37 68
e 37 69
e 37 70
e 37 75
e 37 77
e 37 78
e 37 80
e 37 81
e 37 83
e 37 88
e 37 91
e 37 92
e 37 93
e 37 95
e 37 96
e 37 98
e 37 99
e 37 100
e 38 39
e 38 40
e 38 41
e 38 42
e 38 43
e 38 46
e 38 49
e 38 50
e 38 51
e 38 52
e 38 53
e 38 57
e 38 58
e 38 59
e 38 60
e 38 63
e 38 64
e 38 69
e 38 70
e 38 73
e 38 76
e 38 77
e 38 80
e 38 83
e 38 87
e 38 89
e 38 90
e 38 91
e 38 95
e 38 100
e 39 40
e 39 42
e 39 43
e 39 46
e 39 49
e 39 54
e 39 56
e 39 58
e 39 61
e 39 62
e 39 63
e 39 65
e 39 66
e 39 67
e 39 68
e 39 72
e 39 73
e 39 74
e 39 76
e 39 77
e 39 81
e 39 83
e 39 84
e 39 86
e 39 87
e 39 92
e 39 93
e 39 95
e 39 97
e 39 98
e 40 41
e 40 42
e 40 45
e 40 46
e 40 48
e 40 49
e 40 50
e 40 53
e 40 54
e 40 55
e 40 57
e 40 58
e 40 61
e 40 65
e 40 66
e 40 68
e 40 71
e 40 72
e 40 73
e 40 78
e 40 80
e 40 81
e 40 82
e 40 83
e 40 85
e 40 86
e 40 87
e 40 88
e 40 89
e 40 94
e 40 100
e 41 46
e 41 47
e 41 48
e 41 49
e 41 51
e 41 52
e 41 54
e 41 55
e 41 59
e 41 60
e 41 62
e 41 63
e 41 64
e 41 65
e 41 73
e 41 77
e 41 80
e 41 81
e 41 84
e 41 88
e 41 90
e 41 91
e 41 92
e 41 93
e 41 96
e 41 97
e 41 98
e 41 100
e 42 43
e 42 44
e 42 47
e 42 50
e 42 52
e 42 57
e 42 58
e 42 59
e 42 60
e 42 61
e 42 62
e 42 65
e 42 68
e 42 71
e 42 73
e 42 76
e 42 78
e 42 79
e 42 81
e 42 83
e 42 89
e 42 92
e 42 96
e 42 97
e 42 99
e 43 45
e 43 47
e 43 52
e 43 56
e 43 58
e 43 60
e 43 61
e 43 63
e 43 65
e 43 66
e 43 67
e 43 68
e 43 69
e 43 73
e 43 74
e 43 75
e 43 77
e 43 79
e 43 80
e 43 81
e 43 83
e 43 84
e 43 89
e 43 93
e 43 94
e 43 95
e 43 98
e 43 99
e 44 45
e 44 46
e 44 47
e 44 48
e 44 49
e 44 50
e 44 51
e 44 53
e 44 54
e 44 55
e 44 56
e 44 59
e 44 60
e 44 61
e 44 62
e 44 65
e 44 67
e 44 68
e 44 69
e 44 74
e 44 75
e 44 76
e 44 79
e 44 80
e 44 81
e 44 82
e 44 85
e 44 88
e 44 89
e 44 93
e 44 95
e 44 97
e 44 98
e 44 100
e 45 49
e 45 50
e 45 54
e 45 55
e 45 58
e 45 59
e 45 63
e 45 64
e 45 66
e 45 69
e 45 72
e 45 75
e 45 77
e 45 79
e 45 81
e 45 83
e 45 84
e 45 86
e 45 87
e 45 91
e 45 92
e 45 94
e 45 98
e 45 99
e 45 100
e 46 48
e 46 49
e 46 51
e 46 52
e 46 56
e 46 57
e 46 58
e 46 63
e 46 66
e 46 70
e 46 76
e 46 77
e 46 80
e 46 85
e 46 89
e 46 90
e 46 93
e 46 94
e 46 95
e 46 96
e 46 98
e 46 99
e 46 100
e 47 49
e 47 50
e 47 52
e 47 55
e 47 56
e 47 59
e 47 61
e 47 64
e 47 66
e 47 67
e 47 68
e 47 69
e 47 70
e 47 71
e 47 72
e 47 73
e 47 74
e 47 76
e 47 77
e 47 78
e 47 79
e 47 82
e 47 83
e 47 86
e 47 87
e 47 88
e 47 90
e 47 92
e 47 93
e 47 94
e 48 50
e 48 51
e 48 52
e 48 56
e 48 57
e 48 58
e 48 59
e 48 60
e 48 61
e 48 62
e 48 65
e 48 66
e 48 68
e 48 73
e 48 74
e 48 76
e 48 78
e 48 80
e 48 84
e 48 89
e 48 90
e 48 91
e 48 94
e 48 96
e 48 97
e 49 50
e 49 57
e 49 58
e 49 59
e 49 62
e 49 64
e 49 69
e 49 71
e 49 75
e 49 79
e 49 81
e 49 82
e 49 83
e 49 84
e 49 86
e 49 87
e 49 90
e 49 92
e 49 93
e 49 95
e 49 96
e 49 97
e 49 98
e 50 52
e 50 53
e 50 54
e 50 56
e 50 64
e 50 67
e 50 68
e 50 70
e 50 73
e 50 75
e 50 76
e 50 80
e 50 84
e 50 85
e 50 87
e 50 89
e 50 92
e 50 93
e 50 94
e 50 95
e 50 98
e 51 52
e 51 53
e 51 55
e 51 56
e 51 58
e 51 59
e 51 61
e 51 62
e 51 64
e 51 66
e 51 67
e 51 68
e 51 69
e 51 73
e 51 74
e 51 75
e 51 78
e 51 81
e 51 83
e 51 84
e 51 85
e 51 86
e 51 87
e 51 88
e 51 89
e 51 94
e 51 95
e 51 96
e 51 97
e 51 99
e 51 100
e 52 53
e 52 54
e 52 55
e 52 56
e 52 57
e 52 58
e 52 60
e 52 61
e 52 64
e 52 67
e 52 68
e 52 71
e 52 77
e 52 78
e 52 80
e 52 81
e 52 82
e 52 84
e 52 87
e 52 90
e 52 91
e 52 92
e 52 93
e 52 95
e 52 96
e 52 98
e 52 99
e 53 59
e 53 61
e 53 62
e 53 63
e 53 65
e 53 67
e 53 70
e 53 72
e 53 74
e 53 78
e 53 80
e 53 81
e 53 82
e 53 85
e 53 86
e 53 87
e 53 88
e 53 91
e 53 92
e 53 93
e 53 94
e 53 95
e 53 100
e 54 56
e 54 58
e 54 59
e 54 60
e 54 62
e 54 64
e 54 68
e 54 71
e 54 72
e 54 75
e 54 76
e 54 78
e 54 80
e 54 85
e 54 88
e 54 89
e 54 90
e 54 91
e 54 92
e 54 96
e 54 97
e 54 100
e 55 56
e 55 60
e 55 61
e 55 64
e 55 65
e 55 66
e 55 67
e 55 69
e 55 70
e 55 74
e 55 79
e 55 83
e 55 84
e 55 85
e 55 89
e 55 91
e 55 92
e 55 93
e 55 94
e 55 97
e 56 59
e 56 60
e 56 61
e 56 62
e 56 63
e 56 64
e 56 66
e 56 67
e 56 68
e 56 70
e 56 74
e 56 75
e 56 78
e 56 79
e 56 80
e 56 82
e 56 86
e 56 87
e 56 88
e 56 92
e 56 96
e 56 98
e 56 99
e 56 100
e 57 58
e 57 59
e 57 61
e 57 66
e 57 67
e 57 68
e 57 73
e 57 75
e 57 76
e 57 81
e 57 84
e 57 88
e 57 89
e 57 90
e 57 93
e 57 94
e 57 97
e 57 99
e 58 59
e 58 63
e 58 70
e 58 71
e 58 72
e 58 73
e 58 75
e 58 76
e 58 77
e 58 78
e 58 79
e 58 81
e 58 82
e 58 86
e 58 88
e 58 89
e 58 90
e 58 92
e 58 93
e 58 95
e 58 99
e 58 100
e 59 60
e 59 66
e 59 68
e 59 70
e 59 73
e 59 75
e 59 76
e 59 78
e 59 79
e 59 81
e 59 82
e 59 83
e 59 84
e 59 85
e 59 86
e 59 89
e 59 90
e 59 96
e 59 98
e 59 99
e 60 63
e 60 64
e 60 66
e 60 67
e 60 70
e 60 72
e 60 74
e 60 76
e 60 77
e 60 79
e 60 80
e 60 82
e 60 85
e 60 86
e 60 87
e 60 88
e 60 91
e 60 97
e 61 68
e 61 73
e 61 76
e 61 77
e 61 80
e 61 83
e 61 85
e 61 87
e 61 88
e 61 90
e 61 91
e 61 96
e 62 65
e 62 66
e 62 68
e 62 69
e 62 70
e 62 71
e 62 72
e 62 74
e 62 75
e 62 76
e 62 78
e 62 79
e 62 81
e 62 83
e 62 87
e 62 88
e 62 89
e 62 90
e 62 91
e 62 93
e 62 94
e 62 95
e 62 96
e 62 97
e 62 98
e 62 99
e 63 64
e 63 66
e 63 67
e 63 70
e 63 73
e 63 75
e 63 76
e 63 79
e 63 81
e 63 82
e 63 83
e 63 86
e 63 87
e 63 88
e 63 89
e 63 90
e 63 95
e 63 99
e 63 100
e 64 65
e 64 66
e 64 67
e 64 68
e 64 69
e 64 71
e 64 74
e 64 75
e 64 79
e 64 80
e 64 82
e 64 83
e 64 84
e 64 86
e 64 87
e 64 88
e 64 89
e 64 91
e 64 92
e 64 94
e 64 95
e 64 96
e 64 97
e 64 100
e 65 66
e 65 70
e 65 75
e 65 77
e 65 79
e 65 84
e 65 86
e 65 89
e 65 90
e 65 91
e 65 92
e 65 93
e 65 94
e 65 95
e 65 96
e 66 68
e 66 72
e 66 76
e 66 78
e 66 81
e 66 82
e 66 84
e 66 89
e 66 92
e 66 97
e 66 99
e 66 100
e 67 69
e 67 71
e 67 72
e 67 75
e 67 81
e 67 88
e 67 91
e 67 93
e 67 96
e 67 97
e 67 98
e 67 100
e 68 69
e 68 72
e 68 74
e 68 76
e 68 82
e 68 83
e 68 84
e 68 86
e 68 88
e 68 90
e 68 91
e 68 94
e 68 95
e 68 96
e 68 98
e 69 71
e 69 77
e 69 78
e 69 80
e 69 88
e 69 90
e 69 91
e 69 93
e 69 94
e 69 98
e 69 100
e 70 74
e 70 76
e 70 79
e 70 81
e 70 82
e 70 84
e 70 85
e 70 86
e 70 87
e 70 88
e 70 90
e 70 95
e 70 97
e 70 98
e 70 99
e 71 73
e 71 75
e 71 76
e 71 78
e 71 79
e 71 80
e 71 83
e 71 85
e 71 87
e 71 88
e 71 91
e 71 92
e 71 93
e 71 96
e 71 98
e 71 99
e 72 75
e 72 77
e 72 80
e 72 81
e 72 82
e 72 83
e 72 86
e 72 87
e 72 89
e 72 90
e 72 92
e 72 93
e 72 94
e 72 96
e 72 98
e 72 99
e 73 74
e 73 75
e 73 76
e 73 77
e 73 78
e 73 80
e 73 82
e 73 84
e 73 85
e 73 90
e 73 91
e 73 94
e 73 95
e 73 97
e 73 98
e 73 100
e 74 75
e 74 76
e 74 77
e 74 78
e 74 79
e 74 80
e 74 83
e 74 87
e 74 88
e 74 91
e 74 94
e 74 96
e 74 98
e 74 100
e 75 76
e 75 77
e 75 78
e 75 79
e 75 80
e 75 81
e 75 82
e 75 84
e 75 87
e 75 89
e 75 92
e 75 93
e 75 94
e 75 95
e 75 98
e 76 77
e 76 78
e 76 86
e 76 87
e 76 88
e 76 89
e 76 91
e 76 93
e 76 94
e 76 98
e 76 99
e 76 100
e 77 80
e 77 81
e 77 84
e 77 87
e 77 88
e 77 92
e 77 94
e 77 95
e 77 97
e 77 99
e 77 100
e 78 79
e 78 81
e 78 82
e 78 84
e 78 86
e 78 87
e 78 89
e 78 90
e 78 91
e 78 92
e 78 97
e 78 100
e 79 80
e 79 81
e 79 82
e 79 86
e 79 87
e 79 88
e 79 92
e 79 95
e 79 97
e 79 98
e 79 100
e 80 83
e 80 85
e 80 86
e 80 87
e 80 90
e 80 91
e 80 98
e 80 99
e 80 100
e 81 86
e 81 91
e 81 92
e 81 93
e 81 95
e 81 96
e 81 99
e 82 85
e 82 86
e 82 87
e 82 88
e 82 90
e 82 91
e 82 93
e 82 96
e 82 99
e 82 100
e 83 84
e 83 86
e 83 88
e 83 89
e 83 91
e 83 93
e 83 95
e 83 98
e 84 87
e 84 89
e 84 92
e 84 93
e 84 94
e 84 95
e 84 96
e 84 97
e 85 86
e 85 88
e 85 89
e 85 91
e 85 92
e 85 96
e 85 98
e 85 100
e 86 89
e 86 90
e 86 92
e 86 93
e 86 99
e 86 100
e 87 91
e 87 93
e 87 94
e 87 96
e 87 97
e 87 98
e 87 99
e 87 100
e 88 89
e 88 91
e 88 93
e 88 95
e 88 97
e 89 90
e 89 93
e 89 95
e 89 97
e 89 98
e 90 91
e 90 92
e 90 94
e 90 95
e 90 97
e 90 98
e 90 100
e 91 93
e 91 96
e 91 98
e 91 100
e 92 94
e 92 98
e 92 99
e 92 100
e 93 95
e 93 97
e 93 98
e 94 95
e 94 99
e 95 96
e 95 98
e 95 100
e 96 98
e 96 99
e 96 100
e 98 100
