MATILDA_Graphs/g0056.sol
SET_INDEX
227
2595
3470
3974
6632
7044
7913
8232
9010
9463
12216
13631
14381
16322
EOF
